{"lblp_lower": [1134.572123504123, 1288.5233950774818, 1321.8130952380957, 1331.4125000000006, 1336.9277712264154, 1338.1250712250715, 1338.4796610169494, 1338.5495798319328], "cuttingPlaneBendInfo": [{"tot_cut_value": 0, "TOT_gen_cut": 0, "tot_time_opt": 0, "max_time_opt": 0}, {"tot_cut_value": 0, "TOT_gen_cut": 0, "tot_time_opt": 0, "max_time_opt": 0}, {"tot_cut_value": 0, "TOT_gen_cut": 0, "tot_time_opt": 0, "max_time_opt": 0}, {"tot_cut_value": 0, "TOT_gen_cut": 0, "tot_time_opt": 0, "max_time_opt": 0}, {"tot_cut_value": 0, "TOT_gen_cut": 0, "tot_time_opt": 0, "max_time_opt": 0}, {"tot_cut_value": 0, "TOT_gen_cut": 0, "tot_time_opt": 0, "max_time_opt": 0}, {"tot_cut_value": 0, "TOT_gen_cut": 0, "tot_time_opt": 0, "max_time_opt": 0}, {"tot_cut_value": 0, "TOT_gen_cut": 0, "tot_time_opt": 0, "max_time_opt": 0}], "time_compress": [0, 0, 0, 0, 0, 0, 0, 0], "ub_lp": [1653.72, 1470.400000000001, 1358.7937499999994, 1346.1588354577061, 1340.7678030303027, 1338.7436363636366, 1338.6699074074083, 1338.6445054945057], "prob_sizes_at_start": [{"timeGraph": 102, "ngGraph": 102}, {"timeGraph": 198, "ngGraph": 150}, {"timeGraph": 268, "ngGraph": 160}, {"timeGraph": 301, "ngGraph": 166}, {"timeGraph": 342, "ngGraph": 168}, {"timeGraph": 381, "ngGraph": 168}, {"timeGraph": 396, "ngGraph": 169}, {"timeGraph": 409, "ngGraph": 171}], "prob_sizes_after_compress": [{"timeGraph": 3, "ngGraph": 95}, {"timeGraph": 82, "ngGraph": 64}, {"timeGraph": 101, "ngGraph": 62}, {"timeGraph": 134, "ngGraph": 57}, {"timeGraph": 201, "ngGraph": 41}, {"timeGraph": 226, "ngGraph": 30}, {"timeGraph": 239, "ngGraph": 34}, {"timeGraph": 238, "ngGraph": 33}], "prob_sizes_after_split": [{"timeGraph": 198, "ngGraph": 150}, {"timeGraph": 268, "ngGraph": 160}, {"timeGraph": 301, "ngGraph": 166}, {"timeGraph": 342, "ngGraph": 168}, {"timeGraph": 381, "ngGraph": 168}, {"timeGraph": 396, "ngGraph": 169}, {"timeGraph": 409, "ngGraph": 171}, {"timeGraph": 290, "ngGraph": 115}], "did_compress": [true, true, true, true, true, true, true, true], "lp_time_project": [0.9687821865081787, 0.2845580577850342, 0.28290581703186035, 0.23176097869873047, 0.2666480541229248, 0.286456823348999, 0.24591064453125, 0.2622659206390381], "lp_time_LB": [0.268110990524292, 0.30906081199645996, 0.4361429214477539, 0.2546517848968506, 0.2907888889312744, 0.2262558937072754, 0.22259306907653809, 0.21632099151611328], "ilp_time": [], "history_of_graphs_by_iter": [], "ROOT_LP_PRIOR_ADDING_CUTS": 1338.5495798319328, "OUR_ilp_objective": 1355.3000000000002, "OUR_MIP_Lower_Bound": 1355.2999999999997, "OUR_ilp_time": 2.8893799781799316, "OUR_gurobi_MILP_str": "Gurobi Optimizer version 12.0.1 build v12.0.1rc0 (mac64[arm] - Darwin 24.5.0 24F74)\n\nCPU model: Apple M1\nThread count: 8 physical cores, 8 logical processors, using up to 8 threads\n\nNon-default parameters:\nTimeLimit  3000\n\nWLS license 2690165 - registered to Optym\nOptimize a model with 20008 rows, 11938 columns and 76779 nonzeros\nModel fingerprint: 0x6fac3629\nVariable types: 202 continuous, 11736 integer (6836 binary)\nCoefficient statistics:\n  Matrix range     [1e-01, 1e+02]\n  Objective range  [1e+00, 8e+01]\n  Bounds range     [1e-01, 2e+02]\n  RHS range        [1e+00, 1e+02]\nUsing branch priorities.\nPresolve removed 16849 rows and 7926 columns\nPresolve time: 0.04s\nPresolved: 3159 rows, 4012 columns, 17985 nonzeros\nVariable types: 184 continuous, 3828 integer (3664 binary)\nFound heuristic solution: objective 2214.6000000\n\nRoot relaxation: objective 1.338550e+03, 2950 iterations, 0.10 seconds (0.14 work units)\n\n    Nodes    |    Current Node    |     Objective Bounds      |     Work\n Expl Unexpl |  Obj  Depth IntInf | Incumbent    BestBd   Gap | It/Node Time\n\n     0     0 1338.54958    0  245 2214.60000 1338.54958  39.6%     -    0s\nH    0     0                    1693.8000000 1338.54958  21.0%     -    0s\nH    0     0                    1520.4000000 1338.54958  12.0%     -    0s\nH    0     0                    1471.8000000 1338.54958  9.05%     -    0s\nH    0     0                    1422.8000000 1338.54958  5.92%     -    0s\n     0     0 1341.36211    0  343 1422.80000 1341.36211  5.72%     -    0s\n     0     0 1341.41261    0  343 1422.80000 1341.41261  5.72%     -    0s\n     0     0 1343.18315    0  287 1422.80000 1343.18315  5.60%     -    0s\n     0     0 1343.59155    0  370 1422.80000 1343.59155  5.57%     -    0s\n     0     0 1343.61500    0  328 1422.80000 1343.61500  5.57%     -    0s\n     0     0 1343.61500    0  328 1422.80000 1343.61500  5.57%     -    0s\nH    0     0                    1416.3000000 1343.61500  5.13%     -    0s\nH    0     0                    1397.1000000 1343.61500  3.83%     -    0s\n     0     0 1344.85372    0  308 1397.10000 1344.85372  3.74%     -    0s\nH    0     0                    1386.6000000 1344.86327  3.01%     -    0s\n     0     0 1345.11410    0  280 1386.60000 1345.11410  2.99%     -    0s\n     0     0 1345.11938    0  291 1386.60000 1345.11938  2.99%     -    0s\n     0     0 1345.11938    0  291 1386.60000 1345.11938  2.99%     -    0s\n     0     0 1345.41228    0  341 1386.60000 1345.41228  2.97%     -    0s\n     0     0 1345.41458    0  341 1386.60000 1345.41458  2.97%     -    0s\n     0     0 1345.83095    0  378 1386.60000 1345.83095  2.94%     -    1s\n     0     0 1345.83834    0  376 1386.60000 1345.83834  2.94%     -    1s\n     0     0 1345.83883    0  377 1386.60000 1345.83883  2.94%     -    1s\n     0     0 1346.02783    0  382 1386.60000 1346.02783  2.93%     -    1s\n     0     0 1346.03429    0  385 1386.60000 1346.03429  2.93%     -    1s\n     0     0 1346.03490    0  393 1386.60000 1346.03490  2.93%     -    1s\n     0     0 1346.03535    0  387 1386.60000 1346.03535  2.93%     -    1s\n     0     0 1346.03720    0  387 1386.60000 1346.03720  2.93%     -    1s\n     0     0 1346.03720    0  387 1386.60000 1346.03720  2.93%     -    1s\n     0     0 1346.05310    0  378 1386.60000 1346.05310  2.92%     -    1s\nH    0     2                    1355.8000000 1346.10560  0.72%     -    1s\n     0     2 1346.10560    0  378 1355.80000 1346.10560  0.72%     -    1s\nH  262   140                    1355.3000000 1348.30167  0.52%  89.0    2s\n\nCutting planes:\n  Learned: 32\n  Gomory: 3\n  Cover: 5\n  Implied bound: 144\n  Clique: 4\n  MIR: 180\n  Inf proof: 7\n  Zero half: 48\n  RLT: 79\n  Relax-and-lift: 64\n  BQP: 6\n  PSD: 21\n\nExplored 1009 nodes (69378 simplex iterations) in 2.89 seconds (3.87 work units)\nThread count was 8 (of 8 available processors)\n\nSolution count 10: 1355.3 1355.8 1386.6 ... 2214.6\n\nOptimal solution found (tolerance 1.00e-04)\nBest objective 1.355300000000e+03, best bound 1.355300000000e+03, gap 0.0000%\n", "jy_opt": {"ParetoEps": 1e-05, "turn_off_time_windows": false, "deactivate_time_graph": false, "deactivate_demand_graph": false, "epsilon": 0.0001, "weight_slack_projector": 1e-05, "weight_compress": 0.01, "num_cust_use": 100, "dem_step_sz": 1, "time_step_sz": 1, "use_compression": 1, "max_iterations_loop_compress_project": 50, "do_round_dist_times": 1, "my_shift_bet_time_win": 0.0001, "num_terms_per_bin_init_construct": 100, "allOneBig_init": 0, "min_inc_2_compress": 1e-05, "save_graph_each_iter": 0, "use_Xpress": 0, "use_ineq": false, "xpress_file_loc": "/Users/julian/Documents/FICO_Xpress_Config/xpauth.xpr", "run_baseline": 0, "verbose": 0, "use_NG_graph": 1, "num_NG": 9, "in_demo_mode": 0, "threshold_split": 0.1, "offset_cost_edge_project": 0, "use_classic_compress": 1, "use_classic_compress_last": 1, "num_thresh_split_projector": 1000, "lplb_solver": 4, "compresss_solver": 0, "proj_solver": 4, "use_julians_custom_lp_solver": 0, "do_ilp": 1, "roundingDiscretization_num_digits_keep": 3, "doExrtraRemovalEdgesLB": 0, "use_gurobi": 1, "max_ILP_time": 3000, "use_fancy_ng_graph": 1, "use_dem_graph": 0, "use_time_graph": 1, "num_multiplys_demand": 0, "DEBUG_ALLOW_DUMB_EDGES": 0, "add_all_ng_split_at_end": 0, "do_split_based_init": 0, "think_compress": [0], "use_delta_in_milp": 1, "use_delta_in_lp": 1, "turn_off_non_active_fg_project": 0, "use_new_valid_ineq": 0, "digit_mult_use": 10, "use_branch_on_g": true, "LAB_MP_ON": 0, "LAB_MP_neigh_use_power": 9, "LAB_MP_num_ineq_use": 10, "do_remove_actions_from_incumbant": true, "ub_use_remove": 1355.3, "use_packing_in_construction": 1, "maxVarsAdd_in_ITER": 10, "use_ng_size_init": 0, "do_presolve": 0, "use_diving_ineq": 1, "BEND_MIN_LP_OBJECTIVE_CUT": 0.1, "BEND_USE_RAND": 0, "BEND_MAX_SIZE_CHOOSE_K": 230, "BEND_VAL_STOP_ADDING_CUTS": 100000000, "BEND_MY_SIZES_USE": [9], "NUMERICAL_BEND_OFFSET_COST_CUT": 0.0001, "NUMERICAL_BEND_EPSILON_MULT_PARETO_OBJ": 0.001, "NO_PARETO_NUMERICAL_BEND_OFFSET_COST_CUT": 0, "NO_PARETO_BEND_VAL_STOP_ADDING_CUTS": 1, "NO_PARETO_EPSILON_MAX_VAL_CON": 0.01, "BENDERS_NEIGH_SZ_USE": 9, "Actions_of_given_sol": [], "all_vars_binary": 1, "restore_after_each_step": 1, "use_ng": 1, "compress_solver": 1, "DEBUG_NG_turn_off_CLEAN": false, "max_nodes_split": Infinity}, "output_ilp_solution": {"delta_capRem_0": 1.0, "delta_timeRem_0": 49.0, "delta_capRem_1": 20.0, "delta_timeRem_1": 190.0, "delta_capRem_2": 10.0, "delta_timeRem_2": 97.5, "delta_capRem_3": 2.5, "delta_timeRem_3": 64.0, "delta_capRem_4": 15.2, "delta_timeRem_4": 206.0, "delta_capRem_5": 0.3, "delta_timeRem_5": 111.0, "delta_capRem_6": 1.7, "delta_timeRem_6": 143.0, "delta_capRem_7": 3.6, "delta_timeRem_7": 131.0, "delta_capRem_8": 14.2, "delta_timeRem_8": 132.5, "delta_capRem_9": 1.6, "delta_timeRem_9": 86.0, "delta_capRem_10": 3.1, "delta_timeRem_10": 143.0, "delta_capRem_11": 18.4, "delta_timeRem_11": 177.0, "delta_capRem_12": 2.3, "delta_timeRem_12": 51.0, "delta_capRem_13": 19.5, "delta_timeRem_13": 185.4, "delta_capRem_14": 19.3, "delta_timeRem_14": 167.0, "delta_capRem_15": 9.2, "delta_timeRem_15": 148.4, "delta_capRem_16": 2.0, "delta_timeRem_16": 83.0, "delta_capRem_17": 1.2, "delta_timeRem_17": 123.0, "delta_capRem_18": 16.8, "delta_timeRem_18": 148.8, "delta_capRem_19": 3.7, "delta_timeRem_19": 89.7, "delta_capRem_20": 20.0, "delta_timeRem_20": 178.0, "delta_capRem_21": 16.2, "delta_timeRem_21": 130.1, "delta_capRem_22": 14.4, "delta_timeRem_22": 162.8, "delta_capRem_23": 0.9, "delta_timeRem_23": 57.0, "delta_capRem_24": 0.6, "delta_timeRem_24": 44.0, "delta_capRem_25": 1.7, "delta_timeRem_25": 78.0, "delta_capRem_26": 20.0, "delta_timeRem_26": 203.0, "delta_capRem_27": 20.0, "delta_timeRem_27": 201.0, "delta_capRem_28": 16.5, "delta_timeRem_28": 151.4, "delta_capRem_29": 17.3, "delta_timeRem_29": 168.0, "delta_capRem_30": 20.0, "delta_timeRem_30": 190.0, "delta_capRem_31": 2.8, "delta_timeRem_31": 69.0, "delta_capRem_32": 20.0, "delta_timeRem_32": 203.0, "delta_capRem_33": 3.6, "delta_timeRem_33": 99.0, "delta_capRem_34": 2.2, "delta_timeRem_34": 67.0, "delta_capRem_35": 17.3, "delta_timeRem_35": 171.8, "delta_capRem_36": 1.9, "delta_timeRem_36": 104.6, "delta_capRem_37": 15.7, "delta_timeRem_37": 149.0, "delta_capRem_38": 17.5, "delta_timeRem_38": 181.4, "delta_capRem_39": 2.6, "delta_timeRem_39": 125.0, "delta_capRem_40": 14.4, "delta_timeRem_40": 115.9, "delta_capRem_41": 20.0, "delta_timeRem_41": 204.6, "delta_capRem_42": 4.7, "delta_timeRem_42": 88.9, "delta_capRem_43": 17.5, "delta_timeRem_43": 169.8, "delta_capRem_44": 6.6, "delta_timeRem_44": 184.0, "delta_capRem_45": 3.7, "delta_timeRem_45": 93.0, "delta_capRem_46": 20.0, "delta_timeRem_46": 189.0, "delta_capRem_47": 3.6, "delta_timeRem_47": 71.3, "delta_capRem_48": 6.7, "delta_timeRem_48": 123.3, "delta_capRem_49": 16.5, "delta_timeRem_49": 116.0, "delta_capRem_50": 15.2, "delta_timeRem_50": 148.8, "delta_capRem_51": 20.0, "delta_timeRem_51": 188.0, "delta_capRem_52": 4.0, "delta_timeRem_52": 141.7, "delta_capRem_53": 4.3, "delta_timeRem_53": 83.2, "delta_capRem_54": 9.0, "delta_timeRem_54": 104.0, "delta_capRem_55": 13.9, "delta_timeRem_55": 93.9, "delta_capRem_56": 18.5, "delta_timeRem_56": 139.0, "delta_capRem_57": 1.8, "delta_timeRem_57": 20.0, "delta_capRem_58": 20.0, "delta_timeRem_58": 212.2, "delta_capRem_59": 1.8, "delta_timeRem_59": 60.4, "delta_capRem_60": 7.3, "delta_timeRem_60": 134.0, "delta_capRem_61": 6.0, "delta_timeRem_61": 175.6, "delta_capRem_62": 20.0, "delta_timeRem_62": 195.1, "delta_capRem_63": 4.0, "delta_timeRem_63": 166.0, "delta_capRem_64": 18.9, "delta_timeRem_64": 166.5, "delta_capRem_65": 6.2, "delta_timeRem_65": 108.6, "delta_capRem_66": 11.5, "delta_timeRem_66": 140.8, "delta_capRem_67": 8.7, "delta_timeRem_67": 81.5, "delta_capRem_68": 18.4, "delta_timeRem_68": 163.8, "delta_capRem_69": 0.5, "delta_timeRem_69": 32.0, "delta_capRem_70": 16.9, "delta_timeRem_70": 146.3, "delta_capRem_71": 20.0, "delta_timeRem_71": 205.0, "delta_capRem_72": 18.9, "delta_timeRem_72": 162.0, "delta_capRem_73": 6.3, "delta_timeRem_73": 76.9, "delta_capRem_74": 18.0, "delta_timeRem_74": 144.2, "delta_capRem_75": 17.8, "delta_timeRem_75": 137.0, "delta_capRem_76": 1.4, "delta_timeRem_76": 31.0, "delta_capRem_77": 3.9, "delta_timeRem_77": 114.0, "delta_capRem_78": 15.6, "delta_timeRem_78": 132.2, "delta_capRem_79": 0.6, "delta_timeRem_79": 32.0, "delta_capRem_80": 12.6, "delta_timeRem_80": 116.5, "delta_capRem_81": 5.2, "delta_timeRem_81": 155.0, "delta_capRem_82": 5.0, "delta_timeRem_82": 166.0, "delta_capRem_83": 2.7, "delta_timeRem_83": 109.0, "delta_capRem_84": 6.0, "delta_timeRem_84": 119.0, "delta_capRem_85": 14.1, "delta_timeRem_85": 126.0, "delta_capRem_86": 17.8, "delta_timeRem_86": 121.8, "delta_capRem_87": 4.1, "delta_timeRem_87": 159.3, "delta_capRem_88": 1.5, "delta_timeRem_88": 34.0, "delta_capRem_89": 1.9, "delta_timeRem_89": 115.0, "delta_capRem_90": 2.3, "delta_timeRem_90": 50.0, "delta_capRem_91": 15.2, "delta_timeRem_91": 184.6, "delta_capRem_92": 2.2, "delta_timeRem_92": 31.0, "delta_capRem_93": 3.0, "delta_timeRem_93": 124.1, "delta_capRem_94": 17.2, "delta_timeRem_94": 198.2, "delta_capRem_95": 1.1, "delta_timeRem_95": 75.0, "delta_capRem_96": 4.6, "delta_timeRem_96": 77.0, "delta_capRem_97": 15.0, "delta_timeRem_97": 171.5, "delta_capRem_98": 3.9, "delta_timeRem_98": 140.1, "delta_capRem_99": 4.0, "delta_timeRem_99": 63.1, "act_0_101": 1, "act_1_14": 1, "act_2_67": 1, "act_3_24": 1, "act_4_44": 1, "act_5_101": 1, "act_6_17": 1, "act_7_83": 1, "act_8_80": 1, "act_9_101": 1, "act_10_89": 1, "act_11_28": 1, "act_12_101": 1, "act_13_43": 1, "act_14_56": 1, "act_15_60": 1, "act_16_59": 1, "act_17_101": 1, "act_18_48": 1, "act_19_31": 1, "act_20_72": 1, "act_21_40": 1, "act_22_66": 1, "act_23_79": 1, "act_24_101": 1, "act_25_101": 1, "act_26_68": 1, "act_27_11": 1, "act_28_78": 1, "act_29_50": 1, "act_30_29": 1, "act_31_69": 1, "act_32_64": 1, "act_33_34": 1, "act_34_76": 1, "act_35_18": 1, "act_36_95": 1, "act_37_85": 1, "act_38_22": 1, "act_39_25": 1, "act_40_55": 1, "act_41_13": 1, "act_42_99": 1, "act_43_37": 1, "act_44_82": 1, "act_45_47": 1, "act_46_35": 1, "act_47_101": 1, "act_48_45": 1, "act_49_0": 1, "act_50_8": 1, "act_51_81": 1, "act_52_39": 1, "act_53_3": 1, "act_54_53": 1, "act_55_73": 1, "act_56_86": 1, "act_57_101": 1, "act_58_94": 1, "act_59_88": 1, "act_60_84": 1, "act_61_87": 1, "act_62_63": 1, "act_63_10": 1, "act_64_70": 1, "act_65_19": 1, "act_66_54": 1, "act_67_23": 1, "act_68_75": 1, "act_69_101": 1, "act_70_65": 1, "act_71_38": 1, "act_72_74": 1, "act_73_57": 1, "act_74_21": 1, "act_75_49": 1, "act_76_101": 1, "act_77_33": 1, "act_78_77": 1, "act_79_101": 1, "act_80_2": 1, "act_81_7": 1, "act_82_98": 1, "act_83_16": 1, "act_84_36": 1, "act_85_42": 1, "act_86_96": 1, "act_87_6": 1, "act_88_101": 1, "act_89_9": 1, "act_90_92": 1, "act_91_97": 1, "act_92_101": 1, "act_93_5": 1, "act_94_91": 1, "act_95_101": 1, "act_96_12": 1, "act_97_15": 1, "act_98_93": 1, "act_99_90": 1, "act_100_1": 1, "act_100_4": 1, "act_100_20": 1, "act_100_26": 1, "act_100_27": 1, "act_100_30": 1, "act_100_32": 1, "act_100_41": 1, "act_100_46": 1, "act_100_51": 1, "act_100_52": 1, "act_100_58": 1, "act_100_61": 1, "act_100_62": 1, "act_100_71": 1}, "Actions_of_given_sol": "none just used source and sink terms", "actions_used": ["act_0_101", "act_1_14", "act_2_67", "act_3_24", "act_4_44", "act_5_101", "act_6_17", "act_7_83", "act_8_80", "act_9_101", "act_10_89", "act_11_28", "act_12_101", "act_13_43", "act_14_56", "act_15_60", "act_16_59", "act_17_101", "act_18_48", "act_19_31", "act_20_72", "act_21_40", "act_22_66", "act_23_79", "act_24_101", "act_25_101", "act_26_68", "act_27_11", "act_28_78", "act_29_50", "act_30_29", "act_31_69", "act_32_64", "act_33_34", "act_34_76", "act_35_18", "act_36_95", "act_37_85", "act_38_22", "act_39_25", "act_40_55", "act_41_13", "act_42_99", "act_43_37", "act_44_82", "act_45_47", "act_46_35", "act_47_101", "act_48_45", "act_49_0", "act_50_8", "act_51_81", "act_52_39", "act_53_3", "act_54_53", "act_55_73", "act_56_86", "act_57_101", "act_58_94", "act_59_88", "act_60_84", "act_61_87", "act_62_63", "act_63_10", "act_64_70", "act_65_19", "act_66_54", "act_67_23", "act_68_75", "act_69_101", "act_70_65", "act_71_38", "act_72_74", "act_73_57", "act_74_21", "act_75_49", "act_76_101", "act_77_33", "act_78_77", "act_79_101", "act_80_2", "act_81_7", "act_82_98", "act_83_16", "act_84_36", "act_85_42", "act_86_96", "act_87_6", "act_88_101", "act_89_9", "act_90_92", "act_91_97", "act_92_101", "act_93_5", "act_94_91", "act_95_101", "act_96_12", "act_97_15", "act_98_93", "act_99_90", "act_100_1", "act_100_4", "act_100_20", "act_100_26", "act_100_27", "act_100_30", "act_100_32", "act_100_41", "act_100_46", "act_100_51", "act_100_52", "act_100_58", "act_100_61", "act_100_62", "act_100_71"], "init_default_solution_is_empty": false, "objective_of_initial_sol": 4980.000000000003, "my_paths": "[[100, 1, 14, 56, 86, 96, 12, 101], [100, 4, 44, 82, 98, 93, 5, 101], [100, 20, 72, 74, 21, 40, 55, 73, 57, 101], [100, 26, 68, 75, 49, 0, 101], [100, 27, 11, 28, 78, 77, 33, 34, 76, 101], [100, 30, 29, 50, 8, 80, 2, 67, 23, 79, 101], [100, 32, 64, 70, 65, 19, 31, 69, 101], [100, 41, 13, 43, 37, 85, 42, 99, 90, 92, 101], [100, 46, 35, 18, 48, 45, 47, 101], [100, 51, 81, 7, 83, 16, 59, 88, 101], [100, 52, 39, 25, 101], [100, 58, 94, 91, 97, 15, 60, 84, 36, 95, 101], [100, 61, 87, 6, 17, 101], [100, 62, 63, 10, 89, 9, 101], [100, 71, 38, 22, 66, 54, 53, 3, 24, 101]]"}